100 100 37504
8 5 42 6 41 6 58 99 9 100 7 24 23 42 17 11 26 11 100 29 10 25 17 77 3 89 1 12 33 21
81 76 19 80 48 86 20 3 52 14 53 54 77 32 30 90 65 84 11 81 64 48 93 31 71 9 6 99 72 26
953 389 1668 676 3580 1416 3166 537 1176 3434 676 1408 2362 4031 1152 2255 3570 1913 1552 4559 713 1279 3989 4850 299 1577 12 2116 2932 1214
1022 456 1547 680 3942 1705 3438 485 1500 3622 662 1799 2874 4205 1392 1987 4187 2030 1967 5298 761 1442 3778 5285 334 1982 14 2300 3698 1346
